100
1000
209
208
206
206
204
202
200
200
200
195
194
193
193
192
191
189
188
188
187
186
185
185
184
184
178
177
176
169
167
164
164
162
160
152
152
151
151
149
148
148
147
142
139
137
136
135
135
134
132
131
128
127
126
119
119
119
113
113
111
110
109
109
108
107
107
107
106
106
105
105
104
104
104
103
102
102
101
101
98
97
97
97
97
96
95
95
95
94
89
86
85
83
82
82
79
78
75
74
73
72
